p cnf 112 526                                                  
-1 2 0
-2 3 0
-3 4 0
-4 5 0
-5 6 0
-6 7 0
-8 9 0
-9 10 0
-10 11 0
-11 12 0
-12 13 0
-13 14 0
-15 16 0
-16 17 0
-17 18 0
-18 19 0
-19 20 0
-20 21 0
-22 23 0
-23 24 0
-24 25 0
-25 26 0
-26 27 0
-27 28 0
-29 30 0
-30 31 0
-31 32 0
-32 33 0
-33 34 0
-34 35 0
-36 37 0
-37 38 0
-38 39 0
-39 40 0
-40 41 0
-41 42 0
-43 44 0
-44 45 0
-45 46 0
-46 47 0
-47 48 0
-48 49 0
-50 51 0
-51 52 0
-52 53 0
-53 54 0
-54 55 0
-55 56 0
-8 -57 0
1 -9 -57 0
2 -10 -57 0
3 -11 -57 0
4 -12 -57 0
5 -13 -57 0
6 -14 -57 0
7 -57 0
-1 -58 0
-2 8 -58 0
-3 9 -58 0
-4 10 -58 0
-5 11 -58 0
-6 12 -58 0
-7 13 -58 0
14 -58 0
57 58 0
-15 -59 0
1 -16 -59 0
2 -17 -59 0
3 -18 -59 0
4 -19 -59 0
5 -20 -59 0
6 -21 -59 0
7 -59 0
-1 -60 0
-2 15 -60 0
-3 16 -60 0
-4 17 -60 0
-5 18 -60 0
-6 19 -60 0
-7 20 -60 0
21 -60 0
59 60 0
-22 -61 0
1 -23 -61 0
2 -24 -61 0
3 -25 -61 0
4 -26 -61 0
5 -27 -61 0
6 -28 -61 0
7 -61 0
-1 -62 0
-2 22 -62 0
-3 23 -62 0
-4 24 -62 0
-5 25 -62 0
-6 26 -62 0
-7 27 -62 0
28 -62 0
61 62 0
-29 -63 0
1 -30 -63 0
2 -31 -63 0
3 -32 -63 0
4 -33 -63 0
5 -34 -63 0
6 -35 -63 0
7 -63 0
-1 -64 0
-2 29 -64 0
-3 30 -64 0
-4 31 -64 0
-5 32 -64 0
-6 33 -64 0
-7 34 -64 0
35 -64 0
63 64 0
-36 -65 0
1 -37 -65 0
2 -38 -65 0
3 -39 -65 0
4 -40 -65 0
5 -41 -65 0
6 -42 -65 0
7 -65 0
-1 -66 0
-2 36 -66 0
-3 37 -66 0
-4 38 -66 0
-5 39 -66 0
-6 40 -66 0
-7 41 -66 0
42 -66 0
65 66 0
-43 -67 0
1 -44 -67 0
2 -45 -67 0
3 -46 -67 0
4 -47 -67 0
5 -48 -67 0
6 -49 -67 0
7 -67 0
-1 -68 0
-2 43 -68 0
-3 44 -68 0
-4 45 -68 0
-5 46 -68 0
-6 47 -68 0
-7 48 -68 0
49 -68 0
67 68 0
-50 -69 0
1 -51 -69 0
2 -52 -69 0
3 -53 -69 0
4 -54 -69 0
5 -55 -69 0
6 -56 -69 0
7 -69 0
-1 -70 0
-2 50 -70 0
-3 51 -70 0
-4 52 -70 0
-5 53 -70 0
-6 54 -70 0
-7 55 -70 0
56 -70 0
69 70 0
-15 -71 0
8 -16 -71 0
9 -17 -71 0
10 -18 -71 0
11 -19 -71 0
12 -20 -71 0
13 -21 -71 0
14 -71 0
-8 -72 0
-9 15 -72 0
-10 16 -72 0
-11 17 -72 0
-12 18 -72 0
-13 19 -72 0
-14 20 -72 0
21 -72 0
71 72 0
-22 -73 0
8 -23 -73 0
9 -24 -73 0
10 -25 -73 0
11 -26 -73 0
12 -27 -73 0
13 -28 -73 0
14 -73 0
-8 -74 0
-9 22 -74 0
-10 23 -74 0
-11 24 -74 0
-12 25 -74 0
-13 26 -74 0
-14 27 -74 0
28 -74 0
73 74 0
-29 -75 0
8 -30 -75 0
9 -31 -75 0
10 -32 -75 0
11 -33 -75 0
12 -34 -75 0
13 -35 -75 0
14 -75 0
-8 -76 0
-9 29 -76 0
-10 30 -76 0
-11 31 -76 0
-12 32 -76 0
-13 33 -76 0
-14 34 -76 0
35 -76 0
75 76 0
-36 -77 0
8 -37 -77 0
9 -38 -77 0
10 -39 -77 0
11 -40 -77 0
12 -41 -77 0
13 -42 -77 0
14 -77 0
-8 -78 0
-9 36 -78 0
-10 37 -78 0
-11 38 -78 0
-12 39 -78 0
-13 40 -78 0
-14 41 -78 0
42 -78 0
77 78 0
-43 -79 0
8 -44 -79 0
9 -45 -79 0
10 -46 -79 0
11 -47 -79 0
12 -48 -79 0
13 -49 -79 0
14 -79 0
-8 -80 0
-9 43 -80 0
-10 44 -80 0
-11 45 -80 0
-12 46 -80 0
-13 47 -80 0
-14 48 -80 0
49 -80 0
79 80 0
-50 -81 0
8 -51 -81 0
9 -52 -81 0
10 -53 -81 0
11 -54 -81 0
12 -55 -81 0
13 -56 -81 0
14 -81 0
-8 -82 0
-9 50 -82 0
-10 51 -82 0
-11 52 -82 0
-12 53 -82 0
-13 54 -82 0
-14 55 -82 0
56 -82 0
81 82 0
-22 -83 0
15 -23 -83 0
16 -24 -83 0
17 -25 -83 0
18 -26 -83 0
19 -27 -83 0
20 -28 -83 0
21 -83 0
-15 -84 0
-16 22 -84 0
-17 23 -84 0
-18 24 -84 0
-19 25 -84 0
-20 26 -84 0
-21 27 -84 0
28 -84 0
83 84 0
-29 -85 0
15 -30 -85 0
16 -31 -85 0
17 -32 -85 0
18 -33 -85 0
19 -34 -85 0
20 -35 -85 0
21 -85 0
-15 -86 0
-16 29 -86 0
-17 30 -86 0
-18 31 -86 0
-19 32 -86 0
-20 33 -86 0
-21 34 -86 0
35 -86 0
85 86 0
-36 -87 0
15 -37 -87 0
16 -38 -87 0
17 -39 -87 0
18 -40 -87 0
19 -41 -87 0
20 -42 -87 0
21 -87 0
-15 -88 0
-16 36 -88 0
-17 37 -88 0
-18 38 -88 0
-19 39 -88 0
-20 40 -88 0
-21 41 -88 0
42 -88 0
87 88 0
-43 -89 0
15 -44 -89 0
16 -45 -89 0
17 -46 -89 0
18 -47 -89 0
19 -48 -89 0
20 -49 -89 0
21 -89 0
-15 -90 0
-16 43 -90 0
-17 44 -90 0
-18 45 -90 0
-19 46 -90 0
-20 47 -90 0
-21 48 -90 0
49 -90 0
89 90 0
-50 -91 0
15 -51 -91 0
16 -52 -91 0
17 -53 -91 0
18 -54 -91 0
19 -55 -91 0
20 -56 -91 0
21 -91 0
-15 -92 0
-16 50 -92 0
-17 51 -92 0
-18 52 -92 0
-19 53 -92 0
-20 54 -92 0
-21 55 -92 0
56 -92 0
91 92 0
-29 -93 0
22 -30 -93 0
23 -31 -93 0
24 -32 -93 0
25 -33 -93 0
26 -34 -93 0
27 -35 -93 0
28 -93 0
-22 -94 0
-23 29 -94 0
-24 30 -94 0
-25 31 -94 0
-26 32 -94 0
-27 33 -94 0
-28 34 -94 0
35 -94 0
93 94 0
-36 -95 0
22 -37 -95 0
23 -38 -95 0
24 -39 -95 0
25 -40 -95 0
26 -41 -95 0
27 -42 -95 0
28 -95 0
-22 -96 0
-23 36 -96 0
-24 37 -96 0
-25 38 -96 0
-26 39 -96 0
-27 40 -96 0
-28 41 -96 0
42 -96 0
95 96 0
-43 -97 0
22 -44 -97 0
23 -45 -97 0
24 -46 -97 0
25 -47 -97 0
26 -48 -97 0
27 -49 -97 0
28 -97 0
-22 -98 0
-23 43 -98 0
-24 44 -98 0
-25 45 -98 0
-26 46 -98 0
-27 47 -98 0
-28 48 -98 0
49 -98 0
97 98 0
-50 -99 0
22 -51 -99 0
23 -52 -99 0
24 -53 -99 0
25 -54 -99 0
26 -55 -99 0
27 -56 -99 0
28 -99 0
-22 -100 0
-23 50 -100 0
-24 51 -100 0
-25 52 -100 0
-26 53 -100 0
-27 54 -100 0
-28 55 -100 0
56 -100 0
99 100 0
-36 -101 0
29 -37 -101 0
30 -38 -101 0
31 -39 -101 0
32 -40 -101 0
33 -41 -101 0
34 -42 -101 0
35 -101 0
-29 -102 0
-30 36 -102 0
-31 37 -102 0
-32 38 -102 0
-33 39 -102 0
-34 40 -102 0
-35 41 -102 0
42 -102 0
101 102 0
-43 -103 0
29 -44 -103 0
30 -45 -103 0
31 -46 -103 0
32 -47 -103 0
33 -48 -103 0
34 -49 -103 0
35 -103 0
-29 -104 0
-30 43 -104 0
-31 44 -104 0
-32 45 -104 0
-33 46 -104 0
-34 47 -104 0
-35 48 -104 0
49 -104 0
103 104 0
-50 -105 0
29 -51 -105 0
30 -52 -105 0
31 -53 -105 0
32 -54 -105 0
33 -55 -105 0
34 -56 -105 0
35 -105 0
-29 -106 0
-30 50 -106 0
-31 51 -106 0
-32 52 -106 0
-33 53 -106 0
-34 54 -106 0
-35 55 -106 0
56 -106 0
105 106 0
-43 -107 0
36 -44 -107 0
37 -45 -107 0
38 -46 -107 0
39 -47 -107 0
40 -48 -107 0
41 -49 -107 0
42 -107 0
-36 -108 0
-37 43 -108 0
-38 44 -108 0
-39 45 -108 0
-40 46 -108 0
-41 47 -108 0
-42 48 -108 0
49 -108 0
107 108 0
-50 -109 0
36 -51 -109 0
37 -52 -109 0
38 -53 -109 0
39 -54 -109 0
40 -55 -109 0
41 -56 -109 0
42 -109 0
-36 -110 0
-37 50 -110 0
-38 51 -110 0
-39 52 -110 0
-40 53 -110 0
-41 54 -110 0
-42 55 -110 0
56 -110 0
109 110 0
-50 -111 0
43 -51 -111 0
44 -52 -111 0
45 -53 -111 0
46 -54 -111 0
47 -55 -111 0
48 -56 -111 0
49 -111 0
-43 -112 0
-44 50 -112 0
-45 51 -112 0
-46 52 -112 0
-47 53 -112 0
-48 54 -112 0
-49 55 -112 0
56 -112 0
111 112 0
-7 -14 -21 -28 -35 -42 -49 -56 0
1 8 15 22 29 36 43 50 0
